(set-logic QF_NRA)
(set-info :source |Benchmarks generated from hycomp (https://es-static.fbk.eu/tools/hycomp/). BMC instances of non-linear hybrid automata taken from: Alessandro Cimatti, Sergio Mover, Stefano Tonetta, A quantifier-free SMT encoding of non-linear hybrid automata, FMCAD 2012 and Alessandro Cimatti, Sergio Mover, Stefano Tonetta, Quantier-free encoding of invariants for Hybrid Systems, Formal Methods in System Design. This instance solves a BMC problem of depth 1 and uses the encoding obtained with quantifier elimination using qepcad encoding. Contacts: Sergio Mover (mover@fbk.eu), Stefano Tonetta (tonettas@fbk.eu), Alessandro Cimatti (cimatti@fbk.eu).|)
(set-info :smt-lib-version 2.0)
(set-info :category "industrial")
(set-info :status unsat)
;; MathSAT API call trace
;; generated on Mon Mar 19 10:39:32 2012
(declare-fun b.x__AT1 () Real)
(declare-fun b.counter.2__AT0 () Bool)
(declare-fun b.speed_y__AT1 () Real)
(declare-fun b.event_is_timed__AT0 () Bool)
(declare-fun b.x__AT0 () Real)
(declare-fun b.time__AT1 () Real)
(declare-fun b.bool_atom__AT1 () Bool)
(declare-fun b.g__AT0 () Real)
(declare-fun b.time__AT0 () Real)
(declare-fun b.delta__AT0 () Real)
(declare-fun b.counter.3__AT0 () Bool)
(declare-fun b.speed_y__AT0 () Real)
(declare-fun b.y__AT1 () Real)
(declare-fun b.counter.0__AT1 () Bool)
(declare-fun b.counter.1__AT1 () Bool)
(declare-fun b.counter.2__AT1 () Bool)
(declare-fun b.counter.3__AT1 () Bool)
(declare-fun b.delta__AT1 () Real)
(declare-fun b.event_is_timed__AT1 () Bool)
(declare-fun b.EVENT.0__AT1 () Bool)
(declare-fun b.EVENT.1__AT1 () Bool)
(declare-fun b.y__AT0 () Real)
(declare-fun b.counter.0__AT0 () Bool)
(declare-fun b.EVENT.1__AT0 () Bool)
(declare-fun b.counter.1__AT0 () Bool)
(declare-fun b.EVENT.0__AT0 () Bool)
(declare-fun b.bool_atom__AT0 () Bool)
(assert (let ((.def_256 (* 5.0 b.delta__AT1)))
(let ((.def_257 (* b.delta__AT1 .def_256)))
(let ((.def_258 (* (- 1.0) .def_257)))
(let ((.def_254 (* b.speed_y__AT1 b.delta__AT1)))
(let ((.def_261 (+ .def_254 .def_258)))
(let ((.def_251 (* b.x__AT1 b.x__AT1)))
(let ((.def_262 (+ .def_251 .def_261)))
(let ((.def_263 (+ b.y__AT1 .def_262)))
(let ((.def_264 (<= 0.0 .def_263)))
(let ((.def_252 (+ b.y__AT1 .def_251)))
(let ((.def_253 (<= 0.0 .def_252)))
(let ((.def_265 (and .def_253 .def_264)))
(let ((.def_249 (<= 0.0 b.delta__AT1)))
(let ((.def_250 (not .def_249)))
(let ((.def_266 (or .def_250 .def_265)))
(let ((.def_235 (not b.EVENT.0__AT1)))
(let ((.def_233 (not b.EVENT.1__AT1)))
(let ((.def_246 (and .def_233 .def_235)))
(let ((.def_247 (not .def_246)))
(let ((.def_267 (or .def_247 .def_266)))
(let ((.def_238 (* (- 1.0) b.x__AT1)))
(let ((.def_239 (* b.x__AT1 .def_238)))
(let ((.def_240 (<= .def_239 b.y__AT1)))
(let ((.def_60 (<= b.g__AT0 10.0 )))
(let ((.def_59 (<= 8.0 b.g__AT0)))
(let ((.def_61 (and .def_59 .def_60)))
(let ((.def_241 (and .def_61 .def_240)))
(let ((.def_236 (or .def_233 .def_235)))
(let ((.def_6 (not b.counter.0__AT1)))
(let ((.def_4 (not b.counter.1__AT1)))
(let ((.def_226 (or .def_4 .def_6)))
(let ((.def_230 (or b.counter.3__AT1 .def_226)))
(let ((.def_227 (or b.counter.2__AT1 .def_226)))
(let ((.def_9 (not b.counter.2__AT1)))
(let ((.def_225 (or .def_6 .def_9)))
(let ((.def_228 (and .def_225 .def_227)))
(let ((.def_12 (not b.counter.3__AT1)))
(let ((.def_229 (or .def_12 .def_228)))
(let ((.def_231 (and .def_229 .def_230)))
(let ((.def_237 (and .def_231 .def_236)))
(let ((.def_242 (and .def_237 .def_241)))
(let ((.def_69 (<= 0.0 b.delta__AT0)))
(let ((.def_49 (not b.EVENT.0__AT0)))
(let ((.def_47 (not b.EVENT.1__AT0)))
(let ((.def_66 (and .def_47 .def_49)))
(let ((.def_67 (not .def_66)))
(let ((.def_221 (or .def_67 .def_69)))
(let ((.def_222 (or b.EVENT.1__AT0 .def_221)))
(let ((.def_127 (= b.bool_atom__AT0 b.bool_atom__AT1)))
(let ((.def_122 (= b.counter.0__AT1 b.counter.0__AT0)))
(let ((.def_120 (= b.counter.1__AT1 b.counter.1__AT0)))
(let ((.def_118 (= b.counter.2__AT1 b.counter.2__AT0)))
(let ((.def_117 (= b.counter.3__AT1 b.counter.3__AT0)))
(let ((.def_119 (and .def_117 .def_118)))
(let ((.def_121 (and .def_119 .def_120)))
(let ((.def_123 (and .def_121 .def_122)))
(let ((.def_217 (and .def_123 .def_127)))
(let ((.def_218 (or .def_67 .def_217)))
(let ((.def_219 (or b.EVENT.1__AT0 .def_218)))
(let ((.def_191 (* (- 1.0) b.g__AT0)))
(let ((.def_206 (* b.delta__AT0 .def_191)))
(let ((.def_207 (* (- 1.0) b.speed_y__AT1)))
(let ((.def_210 (+ .def_207 .def_206)))
(let ((.def_211 (+ b.speed_y__AT0 .def_210)))
(let ((.def_212 (= .def_211 0.0 )))
(let ((.def_195 (* b.delta__AT0 b.delta__AT0)))
(let ((.def_194 (* (/ 1 2) .def_191)))
(let ((.def_196 (* .def_194 .def_195)))
(let ((.def_198 (* (- 1.0) b.y__AT1)))
(let ((.def_201 (+ .def_198 .def_196)))
(let ((.def_75 (* b.delta__AT0 b.speed_y__AT0)))
(let ((.def_202 (+ .def_75 .def_201)))
(let ((.def_203 (+ b.y__AT0 .def_202)))
(let ((.def_204 (= .def_203 0.0 )))
(let ((.def_109 (= b.x__AT0 b.x__AT1)))
(let ((.def_205 (and .def_109 .def_204)))
(let ((.def_213 (and .def_205 .def_212)))
(let ((.def_214 (or .def_67 .def_213)))
(let ((.def_112 (= b.y__AT0 b.y__AT1)))
(let ((.def_186 (and .def_109 .def_112)))
(let ((.def_115 (= b.speed_y__AT0 b.speed_y__AT1)))
(let ((.def_187 (and .def_115 .def_186)))
(let ((.def_183 (= b.delta__AT0 0.0 )))
(let ((.def_184 (and .def_66 .def_183)))
(let ((.def_185 (not .def_184)))
(let ((.def_188 (or .def_185 .def_187)))
(let ((.def_189 (or b.EVENT.1__AT0 .def_188)))
(let ((.def_176 (and .def_115 .def_123)))
(let ((.def_177 (or b.bool_atom__AT0 .def_176)))
(let ((.def_152 (or .def_6 b.counter.0__AT0)))
(let ((.def_30 (not b.counter.0__AT0)))
(let ((.def_151 (or b.counter.0__AT1 .def_30)))
(let ((.def_153 (and .def_151 .def_152)))
(let ((.def_154 (and .def_4 .def_153)))
(let ((.def_155 (or b.counter.1__AT0 .def_154)))
(let ((.def_28 (not b.counter.1__AT0)))
(let ((.def_150 (or b.counter.1__AT1 .def_28)))
(let ((.def_156 (and .def_150 .def_155)))
(let ((.def_167 (and .def_9 .def_156)))
(let ((.def_168 (or b.counter.2__AT0 .def_167)))
(let ((.def_162 (and .def_4 .def_30)))
(let ((.def_163 (or b.counter.1__AT0 .def_162)))
(let ((.def_164 (and .def_150 .def_163)))
(let ((.def_165 (and b.counter.2__AT1 .def_164)))
(let ((.def_33 (not b.counter.2__AT0)))
(let ((.def_166 (or .def_33 .def_165)))
(let ((.def_169 (and .def_166 .def_168)))
(let ((.def_170 (and b.counter.3__AT1 .def_169)))
(let ((.def_171 (or b.counter.3__AT0 .def_170)))
(let ((.def_157 (and b.counter.2__AT1 .def_156)))
(let ((.def_158 (or b.counter.2__AT0 .def_157)))
(let ((.def_146 (or b.counter.1__AT1 b.counter.1__AT0)))
(let ((.def_144 (and .def_4 b.counter.0__AT1)))
(let ((.def_145 (or .def_28 .def_144)))
(let ((.def_147 (and .def_145 .def_146)))
(let ((.def_148 (and .def_9 .def_147)))
(let ((.def_149 (or .def_33 .def_148)))
(let ((.def_159 (and .def_149 .def_158)))
(let ((.def_160 (and .def_12 .def_159)))
(let ((.def_36 (not b.counter.3__AT0)))
(let ((.def_161 (or .def_36 .def_160)))
(let ((.def_172 (and .def_161 .def_171)))
(let ((.def_141 (* b.speed_y__AT0 b.speed_y__AT0)))
(let ((.def_140 (* b.speed_y__AT1 b.speed_y__AT1)))
(let ((.def_142 (= .def_140 .def_141)))
(let ((.def_138 (+ b.speed_y__AT0 b.speed_y__AT1)))
(let ((.def_139 (= .def_138 0.0 )))
(let ((.def_143 (and .def_139 .def_142)))
(let ((.def_173 (and .def_143 .def_172)))
(let ((.def_137 (not b.bool_atom__AT0)))
(let ((.def_174 (or .def_137 .def_173)))
(let ((.def_133 (<= 0.0 b.speed_y__AT0)))
(let ((.def_134 (not .def_133)))
(let ((.def_54 (* (- 1.0) b.x__AT0)))
(let ((.def_55 (* b.x__AT0 .def_54)))
(let ((.def_132 (= b.y__AT0 .def_55)))
(let ((.def_135 (and .def_132 .def_134)))
(let ((.def_136 (= b.bool_atom__AT0 .def_135)))
(let ((.def_175 (and .def_136 .def_174)))
(let ((.def_178 (and .def_175 .def_177)))
(let ((.def_179 (and .def_109 .def_178)))
(let ((.def_180 (and .def_112 .def_179)))
(let ((.def_181 (or .def_66 .def_180)))
(let ((.def_182 (or b.EVENT.1__AT0 .def_181)))
(let ((.def_190 (and .def_182 .def_189)))
(let ((.def_215 (and .def_190 .def_214)))
(let ((.def_96 (= b.time__AT0 b.time__AT1)))
(let ((.def_110 (and .def_96 .def_109)))
(let ((.def_113 (and .def_110 .def_112)))
(let ((.def_116 (and .def_113 .def_115)))
(let ((.def_124 (and .def_116 .def_123)))
(let ((.def_128 (and .def_124 .def_127)))
(let ((.def_129 (or .def_47 .def_128)))
(let ((.def_99 (* (- 1.0) b.time__AT1)))
(let ((.def_102 (+ b.delta__AT0 .def_99)))
(let ((.def_103 (+ b.time__AT0 .def_102)))
(let ((.def_104 (= .def_103 0.0 )))
(let ((.def_105 (or .def_67 .def_104)))
(let ((.def_106 (or b.EVENT.1__AT0 .def_105)))
(let ((.def_97 (or .def_66 .def_96)))
(let ((.def_98 (or b.EVENT.1__AT0 .def_97)))
(let ((.def_107 (and .def_98 .def_106)))
(let ((.def_130 (and .def_107 .def_129)))
(let ((.def_93 (= .def_67 b.event_is_timed__AT1)))
(let ((.def_91 (= b.event_is_timed__AT0 .def_66)))
(let ((.def_94 (and .def_91 .def_93)))
(let ((.def_131 (and .def_94 .def_130)))
(let ((.def_216 (and .def_131 .def_215)))
(let ((.def_220 (and .def_216 .def_219)))
(let ((.def_223 (and .def_220 .def_222)))
(let ((.def_224 (and .def_47 .def_223)))
(let ((.def_243 (and .def_224 .def_242)))
(let ((.def_31 (and .def_28 .def_30)))
(let ((.def_34 (and .def_31 .def_33)))
(let ((.def_37 (and .def_34 .def_36)))
(let ((.def_244 (and .def_37 .def_243)))
(let ((.def_78 (* 5.0 b.delta__AT0)))
(let ((.def_79 (* b.delta__AT0 .def_78)))
(let ((.def_80 (* (- 1.0) .def_79)))
(let ((.def_83 (+ .def_75 .def_80)))
(let ((.def_71 (* b.x__AT0 b.x__AT0)))
(let ((.def_84 (+ .def_71 .def_83)))
(let ((.def_85 (+ b.y__AT0 .def_84)))
(let ((.def_86 (<= 0.0 .def_85)))
(let ((.def_72 (+ b.y__AT0 .def_71)))
(let ((.def_73 (<= 0.0 .def_72)))
(let ((.def_87 (and .def_73 .def_86)))
(let ((.def_70 (not .def_69)))
(let ((.def_88 (or .def_70 .def_87)))
(let ((.def_89 (or .def_67 .def_88)))
(let ((.def_56 (<= .def_55 b.y__AT0)))
(let ((.def_62 (and .def_56 .def_61)))
(let ((.def_50 (or .def_47 .def_49)))
(let ((.def_40 (or .def_28 .def_30)))
(let ((.def_44 (or b.counter.3__AT0 .def_40)))
(let ((.def_41 (or b.counter.2__AT0 .def_40)))
(let ((.def_39 (or .def_30 .def_33)))
(let ((.def_42 (and .def_39 .def_41)))
(let ((.def_43 (or .def_36 .def_42)))
(let ((.def_45 (and .def_43 .def_44)))
(let ((.def_51 (and .def_45 .def_50)))
(let ((.def_63 (and .def_51 .def_62)))
(let ((.def_25 (= b.y__AT0 10.0 )))
(let ((.def_21 (= b.x__AT0 0.0 )))
(let ((.def_17 (= b.time__AT0 0.0 )))
(let ((.def_19 (and .def_17 b.event_is_timed__AT0)))
(let ((.def_22 (and .def_19 .def_21)))
(let ((.def_26 (and .def_22 .def_25)))
(let ((.def_38 (and .def_26 .def_37)))
(let ((.def_64 (and .def_38 .def_63)))
(let ((.def_7 (and .def_4 .def_6)))
(let ((.def_10 (and .def_7 .def_9)))
(let ((.def_13 (and .def_10 .def_12)))
(let ((.def_14 (not .def_13)))
(let ((.def_65 (and .def_14 .def_64)))
(let ((.def_90 (and .def_65 .def_89)))
(let ((.def_245 (and .def_90 .def_244)))
(let ((.def_268 (and .def_245 .def_267)))
.def_268)))))))))))))))))))))))))))))))))))))))))))))))))))))))))))))))))))))))))))))))))))))))))))))))))))))))))))))))))))))))))))))))))))))))))))))))))))))))))))))))))))))))))))))))))))))))))))))))))))))))))))))))))))))))))))
(check-sat)
(exit)
